nNurses = 59;
nHours = 28;
minHours = 7;
maxHours = 19;
maxConsec = 12;
maxPresence = 23;
demand = [38, 39, 35, 30, 32, 33, 33, 32, 37, 39, 36, 36, 33, 31, 34, 37, 38, 36, 39, 34, 34, 34, 38, 36, 36, 31, 26, 25];
